(set-logic LIA)
		( synth-fun Precondition ( (variableInt000 Int) (variableInt001 Int) (variableInt002 Int) (variableBool000 Bool) (variableBool001 Bool) ) Bool (
			( Start Bool (StartBool) )
				( StartBool Bool (
					true false
					variableBool000 variableBool001
						(and StartBool StartBool)
						(and StartBool StartBool)
						(not StartBool)
						(<=  StartInt StartInt)
						(= StartInt StartInt)
						(>=  StartInt StartInt)
				) )
				( StartInt Int (
					0 1
					variableInt000 variableInt001 variableInt002
						(+ StartInt StartInt)
						(- StartInt StartInt)
						(ite StartBool StartInt StartInt)
				) )
		) )
		( constraint ( not ( Precondition 2 0 0 true true ) ) )
		( constraint ( Precondition 3 0 0 false false ) )
		( constraint ( Precondition 2 0 -8 true false ) )
		( constraint ( Precondition 2 6 10 true false ) )
		( constraint ( Precondition 2 7 -9 true false ) )
		( constraint ( Precondition 1 0 0 false false ) )
		( constraint ( Precondition 1 -3 8 false true ) )
		( constraint ( Precondition 0 0 0 false false ) )
		( constraint ( not ( Precondition 1 0 0 true true ) ) )
		( constraint ( Precondition 1 7 2 false true ) )
		( constraint ( Precondition 2 0 1 true false ) )
		( constraint ( Precondition 2 -9 2 false true ) )
		( constraint ( Precondition 2 0 8 false true ) )
		( constraint ( not ( Precondition 4 0 0 false false ) ) )
		( constraint ( Precondition 1 10 10 false false ) )
		( constraint ( not ( Precondition 4 0 0 true true ) ) )
		( constraint ( Precondition 2 0 0 false false ) )
		( constraint ( Precondition 6 1 -1 true true ) )
		( constraint ( Precondition 2 1 0 true true ) )
(check-synth)